597 2997 
733 2117 
503 3152 
624 2932 
693 2620 
720 2360 
556 3052 
679 2651 
680 2646 
673 2661 
666 2675 
660 2682 
653 2690 
645 2725 
652 2693 
646 2712 
647 2705 
633 2738 
625 2749 
713 2378 
714 2362 
707 2393 
700 2399 
694 2402 
727 2119 
726 2130 
